1, 36, 34, 35, 39, 42, 43, 51, 50, 48, 49, 41, 40, 38, 20, 19, 1
1, 33, 32, 25, 37, 46, 45, 47, 44, 31, 1
1, 14, 16, 2, 4, 6, 5, 13, 9, 12, 11, 10, 8, 7, 3, 18, 1
1, 15, 52, 53, 22, 21, 29, 27, 28, 24, 23, 30, 26, 17, 1
